tsp_instances/TSP50/instance4.tsp
NODE_COORD_SECTION
0 109 153
1 196 27
2 109 91
3 117 42
4 25 53
5 8 124
6 90 49
7 77 82
8 168 174
9 22 72
10 3 24
11 42 33
12 12 26
13 72 147
14 41 159
15 124 163
16 96 145
17 54 184
18 126 124
19 194 134
20 38 67
21 46 145
22 156 161
23 17 39
24 182 53
25 101 46
26 167 162
27 107 184
28 97 53
29 132 94
30 52 6
31 54 111
32 71 164
33 100 2
34 129 182
35 63 114
36 168 58
37 102 1
38 90 16
39 19 99
40 170 86
41 51 178
42 52 32
43 33 95
44 139 139
45 174 189
46 38 193
47 17 5
48 145 24
49 172 106
