tsp_instances/TSP50/instance4.opt.tour
TOUR_SECTION
1
16
35
28
33
42
18
47
15
22
6
40
44
10
21
5
24
13
11
48
12
43
31
38
34
39
7
29
26
4
49
2
25
37
41
50
20
46
9
27
23
45
19
30
3
8
32
36
14
17
-1